projected/problems_b25_r0_d7_m100_s666/_DIMACS/b25_d7_r0_s666_032.cnf
p cnf 206 304 24
c p show 1 2 3 4 5 6 7 8 9 10 11 12 13 14 15 16 17 18 19 20 21 22 23 24
-206 7 0
-206 -14 0
-25 -14 0
-25 6 0
-26 25 206 0
-27 -22 -3 0
-28 -19 24 0
-29 28 0
-29 27 0
-30 29 26 0
-31 23 17 0
-32 18 8 0
-33 32 0
-33 31 0
-34 -17 -9 0
-35 16 10 0
-36 35 0
-36 34 0
-37 36 33 0
-38 37 30 0
-39 17 -20 0
-40 17 -11 0
-41 40 39 0
-42 8 -5 0
-43 3 0
-43 -22 0
-44 43 42 0
-45 44 0
-45 41 0
-46 8 0
-46 7 0
-47 -7 0
-47 -8 0
-48 47 46 0
-49 14 0
-50 49 48 0
-51 -3 0
-51 -17 0
-52 -6 0
-52 23 0
-53 52 51 0
-54 53 50 0
-55 3 17 0
-56 6 -23 0
-57 56 0
-57 55 0
-58 -8 -7 0
-59 7 8 0
-60 59 0
-60 58 0
-61 -14 0
-62 61 0
-62 60 0
-63 62 57 0
-64 63 0
-64 54 0
-65 64 0
-65 45 0
-66 57 0
-66 62 0
-67 50 0
-67 53 0
-68 67 66 0
-69 -17 0
-69 20 0
-70 -17 0
-70 11 0
-71 70 0
-71 69 0
-72 -8 0
-72 5 0
-73 -3 22 0
-74 73 0
-74 72 0
-75 74 71 0
-76 75 0
-76 68 0
-77 76 65 0
-78 77 0
-78 38 0
-79 12 0
-79 22 0
-80 17 0
-80 24 0
-81 80 0
-81 79 0
-82 -2 -12 0
-83 12 2 0
-84 83 0
-84 82 0
-85 -8 17 0
-86 85 84 0
-87 86 81 0
-88 4 -9 0
-89 -24 15 0
-90 89 88 0
-91 21 0
-91 -19 0
-92 22 -4 0
-93 92 91 0
-94 93 0
-94 90 0
-95 94 87 0
-96 20 0
-96 -6 0
-97 -6 -2 0
-98 97 96 0
-99 6 0
-99 2 0
-100 -20 6 0
-101 100 99 0
-102 101 0
-102 98 0
-103 21 0
-103 -12 0
-104 -9 -10 0
-105 10 9 0
-106 105 0
-106 104 0
-107 106 103 0
-108 107 0
-108 102 0
-109 -12 0
-109 13 0
-110 13 -7 0
-111 110 0
-111 109 0
-112 -19 -2 0
-113 2 0
-113 -5 0
-114 113 0
-114 112 0
-115 114 111 0
-116 19 0
-116 2 0
-117 -2 5 0
-118 117 116 0
-119 12 -13 0
-120 -13 0
-120 7 0
-121 120 119 0
-122 121 118 0
-123 122 0
-123 115 0
-124 123 108 0
-125 124 0
-125 95 0
-126 125 78 0
-127 -8 24 0
-128 11 0
-128 9 0
-129 128 127 0
-130 10 0
-130 -24 0
-131 14 2 0
-132 131 130 0
-133 132 129 0
-134 19 0
-134 -3 0
-135 -4 9 0
-136 -9 4 0
-137 136 0
-137 135 0
-138 137 134 0
-139 -24 0
-139 -4 0
-140 -15 22 0
-141 140 0
-141 139 0
-142 141 138 0
-143 142 0
-143 133 0
-144 24 -19 0
-145 19 7 0
-146 145 144 0
-147 -19 0
-147 -7 0
-148 -24 0
-148 19 0
-149 148 147 0
-150 149 0
-150 146 0
-151 11 15 0
-152 4 22 0
-153 152 151 0
-154 153 150 0
-155 3 2 0
-156 -3 0
-156 17 0
-157 -17 0
-157 3 0
-158 157 156 0
-159 158 155 0
-160 8 0
-160 9 0
-161 -1 21 0
-162 161 160 0
-163 162 159 0
-164 163 0
-164 154 0
-165 164 0
-165 143 0
-166 -11 23 0
-167 -22 23 0
-168 167 0
-168 166 0
-169 21 0
-170 -23 -22 0
-171 170 169 0
-172 171 168 0
-173 -19 0
-173 12 0
-174 1 0
-174 -11 0
-175 174 0
-175 173 0
-176 -17 0
-176 -2 0
-177 -1 2 0
-178 177 0
-178 176 0
-179 178 175 0
-180 179 172 0
-181 14 19 0
-182 3 0
-182 -24 0
-183 182 181 0
-184 -3 24 0
-185 -14 0
-185 -19 0
-186 185 184 0
-187 186 0
-187 183 0
-188 10 0
-188 -16 0
-189 16 0
-189 -10 0
-190 189 188 0
-191 -17 3 0
-192 191 0
-192 190 0
-193 192 0
-193 187 0
-194 -21 -6 0
-195 14 -11 0
-196 11 -14 0
-197 196 0
-197 195 0
-198 197 0
-198 194 0
-199 -7 7 0
-200 9 0
-200 19 0
-201 200 199 0
-202 201 0
-202 198 0
-203 202 193 0
-204 203 0
-204 180 0
-205 204 0
-205 165 0
205 0
126 0
-55 -51 0
-51 -55 0
-52 -56 0
-53 -57 0
-57 -53 0
-60 -48 0
-49 -61 0
-61 -49 0
-62 -50 0
-50 -62 0
-64 -68 0
-69 -39 0
-40 -70 0
-70 -40 0
-71 -41 0
-41 -71 0
-72 -42 0
-43 -73 0
-73 -43 0
-74 -44 0
-44 -74 0
-45 -75 0
-75 -45 0
-97 -99 0
-99 -97 0
-100 -96 0
-96 -100 0
-116 -112 0
-117 -113 0
-118 -114 0
-109 -119 0
-119 -109 0
-120 -110 0
-121 -111 0
-111 -121 0
-147 -145 0
-148 -144 0
-144 -148 0
-184 -182 0
-185 -181 0
-181 -185 0
