projected/problems_b25_r0_d7_m100_s666/b25_d7_r0_s666_032.smt2
(set-logic QF_UF)
(declare-fun A0 () Bool)
(declare-fun A1 () Bool)
(declare-fun A2 () Bool)
(declare-fun A3 () Bool)
(declare-fun A4 () Bool)
(declare-fun A5 () Bool)
(declare-fun A6 () Bool)
(declare-fun A7 () Bool)
(declare-fun A8 () Bool)
(declare-fun A9 () Bool)
(declare-fun A10 () Bool)
(declare-fun A11 () Bool)
(declare-fun A12 () Bool)
(declare-fun A13 () Bool)
(declare-fun A14 () Bool)
(declare-fun A15 () Bool)
(declare-fun A16 () Bool)
(declare-fun A17 () Bool)
(declare-fun A18 () Bool)
(declare-fun A19 () Bool)
(declare-fun A21 () Bool)
(declare-fun A22 () Bool)
(declare-fun A23 () Bool)
(declare-fun A24 () Bool)
(assert (let ((.def_0 (not A13))) (let ((.def_1 (and A6 .def_0))) (let ((.def_2 (and .def_0 A5))) (let ((.def_3 (or .def_2 .def_1))) (let ((.def_4 (not A2))) (let ((.def_5 (not A22))) (let ((.def_6 (or .def_5 .def_4))) (let ((.def_7 (not A24))) (let ((.def_8 (and A18 .def_7))) (let ((.def_9 (not .def_8))) (let ((.def_10 (and .def_9 .def_6))) (let ((.def_11 (or .def_10 .def_3))) (let ((.def_12 (or A23 A16))) (let ((.def_13 (not .def_12))) (let ((.def_14 (not A7))) (let ((.def_15 (not A17))) (let ((.def_16 (and .def_15 .def_14))) (let ((.def_17 (or .def_16 .def_13))) (let ((.def_18 (and A16 A8))) (let ((.def_19 (not .def_18))) (let ((.def_20 (or A15 A9))) (let ((.def_21 (and .def_20 .def_19))) (let ((.def_22 (not .def_21))) (let ((.def_23 (and .def_22 .def_17))) (let ((.def_24 (not .def_23))) (let ((.def_25 (or .def_24 .def_11))) (let ((.def_26 (or A2 A16))) (let ((.def_27 (not .def_26))) (let ((.def_28 (not A5))) (let ((.def_29 (and .def_28 A23))) (let ((.def_30 (or .def_29 .def_27))) (let ((.def_31 (not .def_30))) (let ((.def_32 (not A6))) (let ((.def_33 (= .def_32 A7))) (let ((.def_34 (and A13 A13))) (let ((.def_35 (not .def_34))) (let ((.def_36 (and .def_35 .def_33))) (let ((.def_37 (not .def_36))) (let ((.def_38 (= .def_37 .def_31))) (let ((.def_39 (not A16))) (let ((.def_40 (and .def_39 A19))) (let ((.def_41 (not A10))) (let ((.def_42 (or A16 .def_41))) (let ((.def_43 (not .def_42))) (let ((.def_44 (and .def_43 .def_40))) (let ((.def_45 (not .def_44))) (let ((.def_46 (and .def_14 A4))) (let ((.def_47 (and A2 .def_5))) (let ((.def_48 (not .def_47))) (let ((.def_49 (and .def_48 .def_46))) (let ((.def_50 (not .def_49))) (let ((.def_51 (and .def_50 .def_45))) (let ((.def_52 (not .def_51))) (let ((.def_53 (= .def_52 .def_38))) (let ((.def_54 (not .def_53))) (let ((.def_55 (and .def_54 .def_25))) (let ((.def_56 (not .def_55))) (let ((.def_57 (not A11))) (let ((.def_58 (or .def_57 .def_5))) (let ((.def_59 (or .def_39 .def_7))) (let ((.def_60 (or .def_59 .def_58))) (let ((.def_61 (not .def_60))) (let ((.def_62 (= .def_57 A1))) (let ((.def_63 (not .def_62))) (let ((.def_64 (and A7 .def_39))) (let ((.def_65 (and .def_64 .def_63))) (let ((.def_66 (not .def_65))) (let ((.def_67 (or .def_66 .def_61))) (let ((.def_68 (not A8))) (let ((.def_69 (or A3 .def_68))) (let ((.def_70 (or .def_7 A14))) (let ((.def_71 (or .def_70 .def_69))) (let ((.def_72 (not .def_71))) (let ((.def_73 (not A18))) (let ((.def_74 (and A21 .def_73))) (let ((.def_75 (not .def_74))) (let ((.def_76 (and .def_5 A3))) (let ((.def_77 (and .def_76 .def_75))) (let ((.def_78 (or .def_77 .def_72))) (let ((.def_79 (not .def_78))) (let ((.def_80 (or .def_79 .def_67))) (let ((.def_81 (not .def_80))) (let ((.def_82 (not A1))) (let ((.def_83 (or .def_28 .def_82))) (let ((.def_84 (not .def_83))) (let ((.def_85 (not A19))) (let ((.def_86 (or .def_85 A5))) (let ((.def_87 (not .def_86))) (let ((.def_88 (= .def_87 .def_84))) (let ((.def_89 (not .def_88))) (let ((.def_90 (and A21 .def_57))) (let ((.def_91 (not A9))) (let ((.def_92 (= .def_91 A8))) (let ((.def_93 (or .def_92 .def_90))) (let ((.def_94 (not .def_93))) (let ((.def_95 (or .def_94 .def_89))) (let ((.def_96 (and A18 A1))) (let ((.def_97 (or .def_82 A4))) (let ((.def_98 (or .def_97 .def_96))) (let ((.def_99 (and .def_57 A12))) (let ((.def_100 (not .def_99))) (let ((.def_101 (not A12))) (let ((.def_102 (and .def_101 A6))) (let ((.def_103 (or .def_102 .def_100))) (let ((.def_104 (not .def_103))) (let ((.def_105 (= .def_104 .def_98))) (let ((.def_106 (not .def_105))) (let ((.def_107 (and .def_106 .def_95))) (let ((.def_108 (or .def_107 .def_81))) (let ((.def_109 (and .def_108 .def_56))) (let ((.def_110 (and A7 .def_7))) (let ((.def_111 (not .def_110))) (let ((.def_112 (or .def_41 .def_68))) (let ((.def_113 (not .def_112))) (let ((.def_114 (or .def_113 .def_111))) (let ((.def_115 (or .def_91 A24))) (let ((.def_116 (not .def_115))) (let ((.def_117 (and .def_0 .def_82))) (let ((.def_118 (not .def_117))) (let ((.def_119 (or .def_118 .def_116))) (let ((.def_120 (or .def_119 .def_114))) (let ((.def_121 (or .def_73 A2))) (let ((.def_122 (= A8 A3))) (let ((.def_123 (not .def_122))) (let ((.def_124 (and .def_123 .def_121))) (let ((.def_125 (not .def_124))) (let ((.def_126 (not A3))) (let ((.def_127 (and .def_7 .def_126))) (let ((.def_128 (not .def_127))) (let ((.def_129 (not A14))) (let ((.def_130 (or .def_129 A22))) (let ((.def_131 (not .def_130))) (let ((.def_132 (or .def_131 .def_128))) (let ((.def_133 (not .def_132))) (let ((.def_134 (or .def_133 .def_125))) (let ((.def_135 (and .def_134 .def_120))) (let ((.def_136 (and .def_73 .def_32))) (let ((.def_137 (and .def_7 A18))) (let ((.def_138 (not .def_137))) (let ((.def_139 (= .def_138 .def_136))) (let ((.def_140 (not .def_139))) (let ((.def_141 (and .def_41 .def_129))) (let ((.def_142 (or A3 A22))) (let ((.def_143 (not .def_142))) (let ((.def_144 (and .def_143 .def_141))) (let ((.def_145 (and .def_144 .def_140))) (let ((.def_146 (and .def_4 .def_82))) (let ((.def_147 (= .def_39 .def_4))) (let ((.def_148 (and .def_147 .def_146))) (let ((.def_149 (not .def_148))) (let ((.def_150 (and A7 A8))) (let ((.def_151 (not .def_150))) (let ((.def_152 (not A21))) (let ((.def_153 (and A0 .def_152))) (let ((.def_154 (and .def_153 .def_151))) (let ((.def_155 (not .def_154))) (let ((.def_156 (or .def_155 .def_149))) (let ((.def_157 (not .def_156))) (let ((.def_158 (or .def_157 .def_145))) (let ((.def_159 (not .def_158))) (let ((.def_160 (and .def_159 .def_135))) (let ((.def_161 (not .def_160))) (let ((.def_162 (or .def_41 A23))) (let ((.def_163 (not .def_162))) (let ((.def_164 (not A23))) (let ((.def_165 (and A22 .def_164))) (let ((.def_166 (or .def_165 .def_163))) (let ((.def_167 (not .def_166))) (let ((.def_168 (or A21 A21))) (let ((.def_169 (and A23 A22))) (let ((.def_170 (not .def_169))) (let ((.def_171 (or .def_170 .def_168))) (let ((.def_172 (or .def_171 .def_167))) (let ((.def_173 (and .def_73 A11))) (let ((.def_174 (not .def_173))) (let ((.def_175 (not A0))) (let ((.def_176 (or .def_175 A10))) (let ((.def_177 (or .def_176 .def_174))) (let ((.def_178 (and .def_39 .def_82))) (let ((.def_179 (and A0 .def_82))) (let ((.def_180 (not .def_179))) (let ((.def_181 (and .def_180 .def_178))) (let ((.def_182 (not .def_181))) (let ((.def_183 (and .def_182 .def_177))) (let ((.def_184 (not .def_183))) (let ((.def_185 (or .def_184 .def_172))) (let ((.def_186 (not .def_185))) (let ((.def_187 (or .def_4 A24))) (let ((.def_188 (and .def_0 .def_73))) (let ((.def_189 (not .def_188))) (let ((.def_190 (= .def_189 .def_187))) (let ((.def_191 (not .def_190))) (let ((.def_192 (= A15 A9))) (let ((.def_193 (and A16 .def_4))) (let ((.def_194 (or .def_193 .def_192))) (let ((.def_195 (or .def_194 .def_191))) (let ((.def_196 (not .def_195))) (let ((.def_197 (and A21 A5))) (let ((.def_198 (= .def_41 .def_0))) (let ((.def_199 (not .def_198))) (let ((.def_200 (or .def_199 .def_197))) (let ((.def_201 (not .def_200))) (let ((.def_202 (or .def_32 A6))) (let ((.def_203 (or .def_68 .def_73))) (let ((.def_204 (not .def_203))) (let ((.def_205 (or .def_204 .def_202))) (let ((.def_206 (and .def_205 .def_201))) (let ((.def_207 (or .def_206 .def_196))) (let ((.def_208 (not .def_207))) (let ((.def_209 (or .def_208 .def_186))) (let ((.def_210 (or .def_209 .def_161))) (let ((.def_211 (or .def_210 .def_109))) (let ((.def_212 (not .def_211))) .def_212))))))))))))))))))))))))))))))))))))))))))))))))))))))))))))))))))))))))))))))))))))))))))))))))))))))))))))))))))))))))))))))))))))))))))))))))))))))))))))))))))))))))))))))))))))))))))))))))))))))))))))))))))))))
(check-sat)
